32	0

0	2	2	3
1	1	4
8	1	4
10	1	5
1	1	6
6	1	7
2	2	8	9
9	1	10
8	1	10
4	2	11	12
7	1	13
7	1	13
10	1	14
1	1	15
4	1	16
1	1	17
9	2	18	19
10	1	20
7	1	20
2	1	21
2	1	22
9	1	23
6	1	24
10	1	25
3	1	26
2	2	27	28
10	1	29
8	1	29
3	1	30
9	1	31
9	1	32
0	0
